NAME : LIN317B
TYPE : PDTSP
DIMENSION : 317
EDGE_WEIGHT_TYPE : EUC_2D
NODE_COORD_SECTION
1 63 71
2 94 71
3 142 370
4 173 1276
5 205 1213
6 213 69
7 244 69
8 276 630
9 283 732
10 362 69
11 394 69
12 449 370
13 480 1276
14 512 1213
15 528 157
16 591 732
17 638 654
18 638 496
19 638 314
20 638 142
21 669 142
22 677 315
23 677 496
24 677 654
25 709 654
26 709 496
27 709 315
28 701 142
29 764 220
30 811 189
31 843 173
32 858 370
33 890 1276
34 921 1213
35 992 630
36 1000 732
37 1197 1276
38 1228 1213
39 1276 205
40 1299 630
41 1307 732
42 1362 654
43 1362 496
44 1362 291
45 1425 654
46 1425 496
47 1425 291
48 1417 173
49 1488 291
50 1488 496
51 1488 654
52 1551 654
53 1551 496
54 1551 291
55 1614 291
56 1614 496
57 1614 654
58 1732 189
59 1811 1276
60 1843 1213
61 1913 630
62 1921 732
63 2087 370
64 2118 1276
65 2150 1213
66 2189 205
67 2220 189
68 2220 630
69 2228 732
70 2244 142
71 2276 315
72 2276 496
73 2276 654
74 2315 654
75 2315 496
76 2315 315
77 2331 142
78 2346 315
79 2346 496
80 2346 654
81 2362 142
82 2402 157
83 2402 220
84 2480 142
85 2496 370
86 2528 1276
87 2559 1213
88 2630 630
89 2638 732
90 2756 69
91 2787 69
92 2803 370
93 2835 1276
94 2866 1213
95 2906 69
96 2937 69
97 2937 630
98 2945 732
99 3016 1276
100 3055 69
101 3087 69
102 606 220
103 1165 370
104 1780 370
105 63 1402
106 94 1402
107 142 1701
108 173 2607
109 205 2544
110 213 1400
111 244 1400
112 276 1961
113 283 2063
114 362 1400
115 394 1400
116 449 1701
117 480 2607
118 512 2544
119 528 1488
120 583 1961
121 591 2063
122 638 1985
123 638 1827
124 638 1645
125 638 1473
126 669 1473
127 677 1646
128 677 1827
129 677 1985
130 709 1985
131 709 1827
132 709 1646
133 701 1473
134 764 1551
135 811 1520
136 843 1504
137 858 1701
138 890 2607
139 921 2544
140 992 1961
141 1000 2063
142 1197 2607
143 1228 2544
144 1276 1536
145 1299 1961
146 1307 2063
147 1362 1985
148 1362 1827
149 1362 1622
150 1425 1985
151 1425 1827
152 1425 1622
153 1417 1504
154 1488 1622
155 1488 1827
156 1488 1985
157 1551 1985
158 1551 1827
159 1551 1622
160 1614 1622
161 1614 1827
162 1614 1985
163 1732 1520
164 1811 2607
165 1843 2544
166 1913 1961
167 1921 2063
168 2087 1701
169 2118 2607
170 2150 2544
171 2189 1536
172 2220 1520
173 2220 1961
174 2228 2063
175 2244 1473
176 2276 1646
177 2276 1827
178 2276 1985
179 2315 1985
180 2315 1827
181 2315 1646
182 2331 1473
183 2346 1646
184 2346 1827
185 2346 1985
186 2362 1473
187 2402 1488
188 2402 1551
189 2480 1473
190 2496 1701
191 2528 2607
192 2559 2544
193 2630 1961
194 2638 2063
195 2756 1400
196 2787 1400
197 2803 1701
198 2835 2607
199 2866 2544
200 2906 1400
201 2937 1400
202 2937 1961
203 2945 2063
204 3016 2607
205 3055 1400
206 3087 1400
207 606 1551
208 1165 1701
209 1780 1701
210 63 2733
211 94 2733
212 142 3032
213 173 3938
214 205 3875
215 213 2731
216 244 2731
217 276 3292
218 283 3394
219 362 2731
220 394 2731
221 449 3032
222 480 3938
223 512 3875
224 528 2819
225 583 3292
226 591 3394
227 638 3316
228 638 3158
229 638 2976
230 638 2804
231 669 2804
232 677 2977
233 677 3158
234 677 3316
235 709 3316
236 709 3158
237 709 2977
238 701 2804
239 764 2882
240 811 2851
241 843 2835
242 858 3032
243 890 3938
244 921 3875
245 992 3292
246 1000 3394
247 1197 3938
248 1228 3875
249 1276 2867
250 1299 3292
251 1307 3394
252 1362 3316
253 1362 3158
254 1362 2953
255 1425 3316
256 1425 3158
257 1425 2953
258 1417 2835
259 1488 2953
260 1488 3158
261 1488 3316
262 1551 3316
263 1551 3158
264 1551 2953
265 1614 2953
266 1614 3158
267 1614 3316
268 1732 2851
269 1811 3938
270 1843 3875
271 1913 3292
272 1921 3394
273 2087 3032
274 2118 3938
275 2150 3875
276 2189 2867
277 2220 2851
278 2220 3292
279 2228 3394
280 2244 2804
281 2276 2977
282 2276 3158
283 2276 3316
284 2315 3316
285 2315 3158
286 2315 2977
287 2331 2804
288 2346 2977
289 2346 3158
290 2346 3316
291 2362 2804
292 2402 2819
293 2402 2882
294 2480 2804
295 2496 3032
296 2528 3938
297 2559 3875
298 2630 3292
299 2638 3394
300 2756 2731
301 2787 2731
302 2803 3032
303 2835 3938
304 2866 3875
305 2906 2731
306 2937 2731
307 2937 3292
308 2945 3394
309 3016 3938
310 3055 2731
311 3087 2731
312 606 2882
313 1165 3032
314 1780 3032
315 1417 -79
316 1496 -79
317 1693 4055
PICKUP_AND_DELIVERY_SECTION
1 0 0 0 0 0 0
2 0 0 0 0 3 0
3 0 0 0 0 0 2
4 0 0 0 0 5 0
5 0 0 0 0 0 4
6 0 0 0 0 41 0
7 0 0 0 0 14 0
8 0 0 0 0 22 0
9 0 0 0 0 11 0
10 0 0 0 0 82 0
11 0 0 0 0 0 9
12 0 0 0 0 0 19
13 0 0 0 0 126 0
14 0 0 0 0 0 7
15 0 0 0 0 0 28
16 0 0 0 0 36 0
17 0 0 0 0 0 35
18 0 0 0 0 0 23
19 0 0 0 0 12 0
20 0 0 0 0 0 29
21 0 0 0 0 30 0
22 0 0 0 0 0 8
23 0 0 0 0 18 0
24 0 0 0 0 25 0
25 0 0 0 0 0 24
26 0 0 0 0 0 40
27 0 0 0 0 32 0
28 0 0 0 0 15 0
29 0 0 0 0 20 0
30 0 0 0 0 0 21
31 0 0 0 0 0 57
32 0 0 0 0 0 27
33 0 0 0 0 133 0
34 0 0 0 0 0 134
35 0 0 0 0 17 0
36 0 0 0 0 0 16
37 0 0 0 0 0 135
38 0 0 0 0 152 0
39 0 0 0 0 0 55
40 0 0 0 0 26 0
41 0 0 0 0 0 6
42 0 0 0 0 45 0
43 0 0 0 0 0 109
44 0 0 0 0 0 56
45 0 0 0 0 0 42
46 0 0 0 0 0 52
47 0 0 0 0 49 0
48 0 0 0 0 166 0
49 0 0 0 0 0 47
50 0 0 0 0 0 103
51 0 0 0 0 0 67
52 0 0 0 0 46 0
53 0 0 0 0 0 54
54 0 0 0 0 53 0
55 0 0 0 0 39 0
56 0 0 0 0 44 0
57 0 0 0 0 31 0
58 0 0 0 0 0 61
59 0 0 0 0 172 0
60 0 0 0 0 0 175
61 0 0 0 0 58 0
62 0 0 0 0 0 69
63 0 0 0 0 0 78
64 0 0 0 0 189 0
65 0 0 0 0 0 196
66 0 0 0 0 77 0
67 0 0 0 0 51 0
68 0 0 0 0 89 0
69 0 0 0 0 62 0
70 0 0 0 0 71 0
71 0 0 0 0 0 70
72 0 0 0 0 74 0
73 0 0 0 0 0 92
74 0 0 0 0 0 72
75 0 0 0 0 85 0
76 0 0 0 0 0 83
77 0 0 0 0 0 66
78 0 0 0 0 63 0
79 0 0 0 0 0 96
80 0 0 0 0 0 97
81 0 0 0 0 0 100
82 0 0 0 0 0 10
83 0 0 0 0 76 0
84 0 0 0 0 0 101
85 0 0 0 0 0 75
86 0 0 0 0 0 151
87 0 0 0 0 0 99
88 0 0 0 0 0 95
89 0 0 0 0 0 68
90 0 0 0 0 91 0
91 0 0 0 0 0 90
92 0 0 0 0 73 0
93 0 0 0 0 192 0
94 0 0 0 0 98 0
95 0 0 0 0 88 0
96 0 0 0 0 79 0
97 0 0 0 0 80 0
98 0 0 0 0 0 94
99 0 0 0 0 87 0
100 0 0 0 0 81 0
101 0 0 0 0 84 0
102 0 0 0 0 0 176
103 0 0 0 0 50 0
104 0 0 0 0 0 316
105 0 0 0 0 0 125
106 0 0 0 0 119 0
107 0 0 0 0 207 0
108 0 0 0 0 0 211
109 0 0 0 0 43 0
110 0 0 0 0 111 0
111 0 0 0 0 0 110
112 0 0 0 0 0 115
113 0 0 0 0 0 210
114 0 0 0 0 0 315
115 0 0 0 0 112 0
116 0 0 0 0 0 128
117 0 0 0 0 0 220
118 0 0 0 0 142 0
119 0 0 0 0 0 106
120 0 0 0 0 208 0
121 0 0 0 0 0 136
122 0 0 0 0 0 140
123 0 0 0 0 132 0
124 0 0 0 0 0 150
125 0 0 0 0 105 0
126 0 0 0 0 0 13
127 0 0 0 0 0 137
128 0 0 0 0 116 0
129 0 0 0 0 141 0
130 0 0 0 0 0 138
131 0 0 0 0 0 144
132 0 0 0 0 0 123
133 0 0 0 0 0 33
134 0 0 0 0 34 0
135 0 0 0 0 37 0
136 0 0 0 0 121 0
137 0 0 0 0 127 0
138 0 0 0 0 130 0
139 0 0 0 0 0 232
140 0 0 0 0 122 0
141 0 0 0 0 0 129
142 0 0 0 0 0 118
143 0 0 0 0 264 0
144 0 0 0 0 131 0
145 0 0 0 0 0 159
146 0 0 0 0 149 0
147 0 0 0 0 155 0
148 0 0 0 0 156 0
149 0 0 0 0 0 146
150 0 0 0 0 124 0
151 0 0 0 0 86 0
152 0 0 0 0 0 38
153 0 0 0 0 0 154
154 0 0 0 0 153 0
155 0 0 0 0 0 147
156 0 0 0 0 0 148
157 0 0 0 0 161 0
158 0 0 0 0 0 162
159 0 0 0 0 145 0
160 0 0 0 0 163 0
161 0 0 0 0 0 157
162 0 0 0 0 158 0
163 0 0 0 0 0 160
164 0 0 0 0 273 0
165 0 0 0 0 258 0
166 0 0 0 0 0 48
167 0 0 0 0 0 206
168 0 0 0 0 0 183
169 0 0 0 0 191 0
170 0 0 0 0 0 223
171 0 0 0 0 173 0
172 0 0 0 0 0 59
173 0 0 0 0 0 171
174 0 0 0 0 185 0
175 0 0 0 0 60 0
176 0 0 0 0 102 0
177 0 0 0 0 0 193
178 0 0 0 0 179 0
179 0 0 0 0 0 178
180 0 0 0 0 184 0
181 0 0 0 0 0 190
182 0 0 0 0 0 281
183 0 0 0 0 168 0
184 0 0 0 0 0 180
185 0 0 0 0 0 174
186 0 0 0 0 0 187
187 0 0 0 0 186 0
188 0 0 0 0 0 205
189 0 0 0 0 0 64
190 0 0 0 0 181 0
191 0 0 0 0 0 169
192 0 0 0 0 0 93
193 0 0 0 0 177 0
194 0 0 0 0 0 198
195 0 0 0 0 197 0
196 0 0 0 0 65 0
197 0 0 0 0 0 195
198 0 0 0 0 194 0
199 0 0 0 0 0 200
200 0 0 0 0 199 0
201 0 0 0 0 0 202
202 0 0 0 0 201 0
203 0 0 0 0 0 310
204 0 0 0 0 282 0
205 0 0 0 0 188 0
206 0 0 0 0 167 0
207 0 0 0 0 0 107
208 0 0 0 0 0 120
209 0 0 0 0 0 249
210 0 0 0 0 113 0
211 0 0 0 0 108 0
212 0 0 0 0 0 219
213 0 0 0 0 221 0
214 0 0 0 0 234 0
215 0 0 0 0 253 0
216 0 0 0 0 240 0
217 0 0 0 0 229 0
218 0 0 0 0 222 0
219 0 0 0 0 212 0
220 0 0 0 0 117 0
221 0 0 0 0 0 213
222 0 0 0 0 0 218
223 0 0 0 0 170 0
224 0 0 0 0 0 238
225 0 0 0 0 0 233
226 0 0 0 0 0 247
227 0 0 0 0 239 0
228 0 0 0 0 0 241
229 0 0 0 0 0 217
230 0 0 0 0 0 231
231 0 0 0 0 230 0
232 0 0 0 0 139 0
233 0 0 0 0 225 0
234 0 0 0 0 0 214
235 0 0 0 0 0 267
236 0 0 0 0 312 0
237 0 0 0 0 242 0
238 0 0 0 0 224 0
239 0 0 0 0 0 227
240 0 0 0 0 0 216
241 0 0 0 0 228 0
242 0 0 0 0 0 237
243 0 0 0 0 251 0
244 0 0 0 0 246 0
245 0 0 0 0 0 313
246 0 0 0 0 0 244
247 0 0 0 0 226 0
248 0 0 0 0 250 0
249 0 0 0 0 209 0
250 0 0 0 0 0 248
251 0 0 0 0 0 243
252 0 0 0 0 0 265
253 0 0 0 0 0 215
254 0 0 0 0 0 268
255 0 0 0 0 0 263
256 0 0 0 0 0 314
257 0 0 0 0 0 261
258 0 0 0 0 0 165
259 0 0 0 0 0 260
260 0 0 0 0 259 0
261 0 0 0 0 257 0
262 0 0 0 0 266 0
263 0 0 0 0 255 0
264 0 0 0 0 0 143
265 0 0 0 0 252 0
266 0 0 0 0 0 262
267 0 0 0 0 235 0
268 0 0 0 0 254 0
269 0 0 0 0 297 0
270 0 0 0 0 0 317
271 0 0 0 0 278 0
272 0 0 0 0 274 0
273 0 0 0 0 0 164
274 0 0 0 0 0 272
275 0 0 0 0 279 0
276 0 0 0 0 0 294
277 0 0 0 0 280 0
278 0 0 0 0 0 271
279 0 0 0 0 0 275
280 0 0 0 0 0 277
281 0 0 0 0 182 0
282 0 0 0 0 0 204
283 0 0 0 0 0 298
284 0 0 0 0 0 304
285 0 0 0 0 0 301
286 0 0 0 0 0 287
287 0 0 0 0 286 0
288 0 0 0 0 0 290
289 0 0 0 0 0 299
290 0 0 0 0 288 0
291 0 0 0 0 0 293
292 0 0 0 0 300 0
293 0 0 0 0 291 0
294 0 0 0 0 276 0
295 0 0 0 0 0 303
296 0 0 0 0 0 309
297 0 0 0 0 0 269
298 0 0 0 0 283 0
299 0 0 0 0 289 0
300 0 0 0 0 0 292
301 0 0 0 0 285 0
302 0 0 0 0 305 0
303 0 0 0 0 295 0
304 0 0 0 0 284 0
305 0 0 0 0 0 302
306 0 0 0 0 311 0
307 0 0 0 0 308 0
308 0 0 0 0 0 307
309 0 0 0 0 296 0
310 0 0 0 0 203 0
311 0 0 0 0 0 306
312 0 0 0 0 0 236
313 0 0 0 0 245 0
314 0 0 0 0 256 0
315 0 0 0 0 114 0
316 0 0 0 0 104 0
317 0 0 0 0 270 0
DEPOT_SECTION
1 
-1
EOF
